&CONTROL
   calculation      = 'scf'
   title            = 'H2O-IR_ESM-RISM'
   verbosity        = 'high'
   restart_mode     = 'from_scratch'
   wf_collect       = .true.
   nstep            = 1
   tstress          = .false.
   tprnfor          = .true.
   outdir           = 'tmp'
   prefix           = 'H2O-IR_ESM-RISM'
   pseudo_dir       = '/work/gf93/f93007/QE/pseudo'
   trism            = .true.
/
&SYSTEM
   nbnd             = 20
   tot_charge       = 0.0
   ecutwfc          = 62.473848207426286
   ecutrho          = 624.7384820742628
   input_dft        = 'vdW-DF2'
   assume_isolated  = 'esm'
   esm_bc           = 'bc1'
   ntyp             = 2
   nat              = 3
   ibrav            = 0
/
&ELECTRONS
   electron_maxstep = 800
   conv_thr         = 7.349864494991328e-12
   mixing_mode      = 'plain'
   mixing_beta      = 0.3333333333333333
   mixing_ndim      = 12
   diagonalization  = 'rmm'
   diago_rmm_ndim   = 4
   diago_rmm_conv   = .false.
/
&IONS
   ion_dynamics     = 'bfgs'
/
&CELL
/
&FCP
/
&RISM
   nsolv            = 3
   closure          = 'kh'
   tempv            = 300.0
   ecutsolv         = 249.89539282970514
   starting1d       = 'zero'
   starting3d       = 'zero'
   rism1d_maxstep   = 100000
   rism3d_maxstep   = 10000
   rism1d_conv_thr  = 1e-08
   rism3d_conv_thr  = 1e-06
   mdiis1d_size     = 20
   mdiis3d_size     = 20
   mdiis1d_step     = 0.1
   mdiis3d_step     = 0.8
   rism3d_conv_level = 0.5
   laue_expand_right = 60.0
   laue_expand_left = 60.0
   solute_lj(1)     = 'none'
   solute_lj(2)     = 'none'
   solute_epsilon(1) = 0.1554
   solute_epsilon(2) = 0.046
   solute_sigma(1)  = 3.166
   solute_sigma(2)  = 1.0
/

SOLVENTS   {mol/L}
H2O  -1.0  H2O.tip5p.MOL
K+  1.0  K+.oplsaa.MOL
OH-  1.0  OH-.oplsaa.MOL

ATOMIC_SPECIES
O 15.999 O.pbe-n-kjpaw_psl.1.0.0.UPF
H 1.008 H.pbe-kjpaw_psl.1.0.0.UPF

K_POINTS automatic
1 1 1  0 0 0

CELL_PARAMETERS angstrom
20.00000017219371 0.00000000000000 0.00000000000000
0.00000000000000 20.00000017219371 0.00000000000000
0.00000000000000 0.00000000000000 20.00000017219371

ATOMIC_POSITIONS angstrom
O 10.0000000000 10.0000000000 -0.0026528270  
H 10.0000000000 10.7705970110 0.5976150510  
H 10.0100000000 9.2294029890 0.5976150510  

