&CONTROL
   calculation      = 'scf'
   title            = 'Cu-vib'
   verbosity        = 'high'
   restart_mode     = 'from_scratch'
   wf_collect       = .true.
   nstep            = 1
   tstress          = .false.
   tprnfor          = .true.
   outdir           = 'tmp'
   prefix           = 'Cu-vib'
   pseudo_dir       = '/work/gf93/f93007/QE/pseudo'
   trism            = .true.
/
&SYSTEM
   tot_charge       = 0.0
   ecutwfc          = 62.473848207426286
   ecutrho          = 624.7384820742628
   nosym            = .true.
   occupations      = 'smearing'
   degauss          = 0.007349864494991328
   smearing         = 'marzari-vanderbilt'
   input_dft        = 'vdW-DF2'
   assume_isolated  = 'esm'
   esm_bc           = 'bc1'
   ntyp             = 3
   nat              = 38
   ibrav            = 0
/
&ELECTRONS
   electron_maxstep = 2000
   conv_thr         = 7.349864494991328e-12
   mixing_mode      = 'plain'
   mixing_beta      = 0.3333333333333333
   mixing_ndim      = 12
   diagonalization  = 'rmm'
   diago_rmm_ndim   = 8
   diago_rmm_conv   = .false.
/
&IONS
   ion_dynamics     = 'bfgs'
/
&CELL
/
&FCP
/
&RISM
   nsolv            = 3
   closure          = 'kh'
   tempv            = 300.0
   ecutsolv         = 249.89539282970514
   starting1d       = 'file'
   starting3d       = 'file'
   rism1d_maxstep   = 100000
   rism3d_maxstep   = 10000
   rism1d_conv_thr  = 1e-08
   rism3d_conv_thr  = 1e-06
   mdiis1d_size     = 20
   mdiis3d_size     = 20
   mdiis1d_step     = 0.1
   mdiis3d_step     = 0.8
   rism3d_conv_level = 0.8
   laue_expand_right = 60.0
   laue_starting_right = -8.2
   laue_buffer_right = 10.0
/

SOLVENTS   {mol/L}
H2O  -1.0  H2O.tip5p.MOL
K+  1.0  K+.oplsaa.MOL
OH-  1.0  OH-.oplsaa.MOL

ATOMIC_SPECIES
Cu 63.546 Cu.pbe-dn-kjpaw_psl.1.0.0.UPF
C 12.011 C.pbe-n-kjpaw_psl.1.0.0.UPF
O 15.999 O.pbe-n-kjpaw_psl.1.0.0.UPF

K_POINTS automatic
8 8 1  0 0 0

CELL_PARAMETERS angstrom
7.92877271079766 0.00000000000000 0.00000000000000
3.96438635539883 6.86651538686854 0.00000000000000
0.00000000000000 0.00000000000000 40.00000000000000

ATOMIC_POSITIONS angstrom
Cu 0.0000000000 0.0000000000 -6.4738157328   0 0 0
Cu 2.6429242057 0.0000000000 -6.4738157328   0 0 0
Cu 5.2858484114 0.0000000000 -6.4738157328   0 0 0
Cu 1.3214621028 2.2888395024 -6.4738157328   0 0 0
Cu 3.9643863085 2.2888395024 -6.4738157328   0 0 0
Cu 6.6073105142 2.2888395024 -6.4738157328   0 0 0
Cu 2.6429242057 4.5776790048 -6.4738157328   0 0 0
Cu 5.2858484114 4.5776790048 -6.4738157328   0 0 0
Cu 7.9287726170 4.5776790048 -6.4738157328   0 0 0
Cu 1.3316532843 0.7688305008 -4.3341590952  
Cu 3.9643866348 0.7640117506 -4.3315016751  
Cu 6.5971209507 0.7688296195 -4.3341595788  
Cu 2.6438464791 3.0512506452 -4.3315023150  
Cu 5.2849263805 3.0512505449 -4.3315028830  
Cu 7.9287742786 3.0535568883 -4.3379638234  
Cu 3.9643862706 5.3288610522 -4.3341593227  
Cu 6.6088477702 5.3397409843 -4.3379630481  
Cu 9.2486996635 5.3397402520 -4.3379627208  
Cu 0.0000019533 1.5215794453 -2.2291625902  
Cu 2.6639563635 1.5380339718 -2.1626138555  
Cu 5.2648181540 1.5380334045 -2.1626146780  
Cu 1.3224696771 3.8141519188 -2.2111776922  
Cu 3.9643864913 3.7904478943 -2.1626150950  
Cu 6.6063064911 3.8141521064 -2.2111775798  
Cu 2.6466594460 6.1057286538 -2.2291643398  
Cu 5.2821153953 6.1057296689 -2.2291628909  
Cu 7.9287742064 6.1047347251 -2.2111771395  
Cu -0.0000002155 0.0000012432 -0.0981517913  
Cu 2.6306063533 -0.0274318867 -0.0905937859  
Cu 5.2981671719 -0.0274322418 -0.0905949401  
Cu 1.2915452553 2.2918864251 -0.0905927722  
Cu 3.9643863690 2.2888383548 0.0667076560  
Cu 6.6372273758 2.2918856843 -0.0905924524  
Cu 2.6253253166 4.6020648830 -0.0905929715  
Cu 5.3034469812 4.6020640299 -0.0905916395  
Cu 7.9287736476 4.5776804942 -0.0856403790  
C 3.9643812528 2.2888365579 1.9775301038  
O 3.9643777085 2.2888347821 3.1179185485  

