&CONTROL
   calculation      = 'scf'
   title            = 'Cu-vib'
   verbosity        = 'high'
   restart_mode     = 'from_scratch'
   wf_collect       = .true.
   nstep            = 1
   tstress          = .false.
   tprnfor          = .true.
   outdir           = 'tmp'
   prefix           = 'Cu-vib'
   pseudo_dir       = '/work/gf93/f93007/QE/pseudo'
   trism            = .true.
/
&SYSTEM
   tot_charge       = 0.0
   ecutwfc          = 62.473848207426286
   ecutrho          = 624.7384820742628
   nosym            = .true.
   occupations      = 'smearing'
   degauss          = 0.007349864494991328
   smearing         = 'marzari-vanderbilt'
   input_dft        = 'vdW-DF2'
   assume_isolated  = 'esm'
   esm_bc           = 'bc1'
   ntyp             = 3
   nat              = 38
   ibrav            = 0
/
&ELECTRONS
   electron_maxstep = 2000
   conv_thr         = 7.349864494991328e-12
   mixing_mode      = 'plain'
   mixing_beta      = 0.3333333333333333
   mixing_ndim      = 12
   diagonalization  = 'rmm'
   diago_rmm_ndim   = 8
   diago_rmm_conv   = .false.
/
&IONS
   ion_dynamics     = 'bfgs'
/
&CELL
/
&FCP
/
&RISM
   nsolv            = 3
   closure          = 'kh'
   tempv            = 300.0
   ecutsolv         = 249.89539282970514
   starting1d       = 'file'
   starting3d       = 'file'
   rism1d_maxstep   = 100000
   rism3d_maxstep   = 10000
   rism1d_conv_thr  = 1e-08
   rism3d_conv_thr  = 1e-06
   mdiis1d_size     = 20
   mdiis3d_size     = 20
   mdiis1d_step     = 0.1
   mdiis3d_step     = 0.8
   rism3d_conv_level = 0.8
   laue_expand_right = 60.0
   laue_starting_right = -8.2
   laue_buffer_right = 10.0
   solute_lj(1)     = 'none'
   solute_lj(2)     = 'opls-aa'
   solute_lj(3)     = 'opls-aa'
   solute_epsilon(1) = 1.0
   solute_sigma(1)  = 3.0
/

SOLVENTS   {mol/L}
H2O  -1.0  H2O.tip5p.MOL
K+  1.0  K+.oplsaa.MOL
OH-  1.0  OH-.oplsaa.MOL

ATOMIC_SPECIES
Cu 63.546 Cu.pbe-dn-kjpaw_psl.1.0.0.UPF
C 12.011 C.pbe-n-kjpaw_psl.1.0.0.UPF
O 15.999 O.pbe-n-kjpaw_psl.1.0.0.UPF

K_POINTS automatic
8 8 1  0 0 0

CELL_PARAMETERS angstrom
7.92877271079766 0.00000000000000 0.00000000000000
3.96438635539883 6.86651538686854 0.00000000000000
0.00000000000000 0.00000000000000 40.00000000000000

ATOMIC_POSITIONS angstrom
Cu 0.0000000000 0.0000000000 -6.5403559930   0 0 0
Cu 2.6429242057 0.0000000000 -6.5403559930   0 0 0
Cu 5.2858484114 0.0000000000 -6.5403559930   0 0 0
Cu 1.3214621028 2.2888395024 -6.5403559930   0 0 0
Cu 3.9643863085 2.2888395024 -6.5403559930   0 0 0
Cu 6.6073105142 2.2888395024 -6.5403559930   0 0 0
Cu 2.6429242057 4.5776790048 -6.5403559930   0 0 0
Cu 5.2858484114 4.5776790048 -6.5403559930   0 0 0
Cu 7.9287726170 4.5776790048 -6.5403559930   0 0 0
Cu 1.3316588456 0.7688346392 -4.4006890701  
Cu 3.9643869426 0.7639811957 -4.3980300918  
Cu 6.5971156865 0.7688351323 -4.4006892214  
Cu 2.6438195302 3.0512695033 -4.3980300689  
Cu 5.2849548637 3.0512699219 -4.3980297699  
Cu 7.9287730338 3.0535483901 -4.4044098650  
Cu 3.9643877951 5.3288505395 -4.4006885768  
Cu 6.6088375199 5.3397419939 -4.4044090997  
Cu 9.2487087377 5.3397422135 -4.4044093831  
Cu 0.0000014957 1.5215671601 -2.2956987970  
Cu 2.6638676830 1.5379851888 -2.2294486603  
Cu 5.2649076880 1.5379856268 -2.2294490353  
Cu 1.3224727739 3.8141491934 -2.2776865527  
Cu 3.9643878526 3.7905505070 -2.2294490503  
Cu 6.6063020506 3.8141493622 -2.2776859346  
Cu 2.6466730931 6.1057342470 -2.2956998249  
Cu 5.2821024622 6.1057345328 -2.2956989333  
Cu 7.9287735118 6.1047365283 -2.2776863582  
Cu -0.0000000751 0.0000012638 -0.1645007537  
Cu 2.6305416194 -0.0274856468 -0.1572176244  
Cu 5.2982315842 -0.0274852761 -0.1572183703  
Cu 1.2914662498 2.2918594889 -0.1572188335  
Cu 3.9643867742 2.2888401684 0.0000000000  
Cu 6.6373059274 2.2918593959 -0.1572185739  
Cu 2.6253116245 4.6021446576 -0.1572188763  
Cu 5.3034614655 4.6021443707 -0.1572181056  
Cu 7.9287723675 4.5776773696 -0.1520208610  
C 3.9543815583 2.2888362739 1.9006445848  
O 3.9643776548 2.2888337259 3.0510184012  

